c " random instance " 
p edges 200 3986
e 1 9
e 1 26
e 1 43
e 1 49
e 1 50
e 1 58
e 1 59
e 1 60
e 1 64
e 1 66
e 1 68
e 1 79
e 1 89
e 1 93
e 1 96
e 1 97
e 1 103
e 1 120
e 1 121
e 1 123
e 1 124
e 1 126
e 1 129
e 1 130
e 1 131
e 1 134
e 1 135
e 1 142
e 1 146
e 1 153
e 1 158
e 1 165
e 1 172
e 1 175
e 1 177
e 1 179
e 1 183
e 1 189
e 1 192
e 1 194
e 1 197
e 2 6
e 2 8
e 2 9
e 2 19
e 2 25
e 2 30
e 2 33
e 2 49
e 2 53
e 2 54
e 2 55
e 2 76
e 2 82
e 2 84
e 2 85
e 2 89
e 2 95
e 2 96
e 2 101
e 2 112
e 2 114
e 2 128
e 2 131
e 2 139
e 2 144
e 2 147
e 2 151
e 2 152
e 2 154
e 2 162
e 2 163
e 2 167
e 2 183
e 2 184
e 2 190
e 2 197
e 3 23
e 3 24
e 3 29
e 3 32
e 3 47
e 3 52
e 3 55
e 3 72
e 3 73
e 3 78
e 3 85
e 3 86
e 3 91
e 3 104
e 3 108
e 3 109
e 3 112
e 3 122
e 3 129
e 3 133
e 3 140
e 3 142
e 3 143
e 3 151
e 3 155
e 3 156
e 3 157
e 3 158
e 3 163
e 3 178
e 3 185
e 3 187
e 3 189
e 3 191
e 3 194
e 3 196
e 4 6
e 4 7
e 4 15
e 4 17
e 4 23
e 4 34
e 4 43
e 4 51
e 4 58
e 4 67
e 4 77
e 4 79
e 4 80
e 4 90
e 4 102
e 4 104
e 4 107
e 4 118
e 4 119
e 4 124
e 4 128
e 4 131
e 4 140
e 4 147
e 4 150
e 4 151
e 4 152
e 4 160
e 4 162
e 4 171
e 4 172
e 4 183
e 4 189
e 5 6
e 5 8
e 5 14
e 5 35
e 5 36
e 5 38
e 5 39
e 5 43
e 5 48
e 5 50
e 5 52
e 5 57
e 5 58
e 5 62
e 5 67
e 5 80
e 5 83
e 5 85
e 5 92
e 5 110
e 5 113
e 5 115
e 5 116
e 5 123
e 5 126
e 5 129
e 5 133
e 5 137
e 5 141
e 5 147
e 5 152
e 5 153
e 5 172
e 5 178
e 5 185
e 5 188
e 5 191
e 5 195
e 5 199
e 5 200
e 6 7
e 6 8
e 6 17
e 6 19
e 6 21
e 6 22
e 6 23
e 6 25
e 6 29
e 6 39
e 6 77
e 6 79
e 6 80
e 6 85
e 6 88
e 6 92
e 6 112
e 6 128
e 6 132
e 6 135
e 6 140
e 6 142
e 6 143
e 6 145
e 6 148
e 6 149
e 6 152
e 6 155
e 6 160
e 6 163
e 6 170
e 6 174
e 6 179
e 6 192
e 6 198
e 6 200
e 7 13
e 7 14
e 7 17
e 7 24
e 7 29
e 7 31
e 7 39
e 7 49
e 7 52
e 7 53
e 7 55
e 7 59
e 7 62
e 7 65
e 7 66
e 7 73
e 7 77
e 7 88
e 7 92
e 7 98
e 7 104
e 7 109
e 7 111
e 7 112
e 7 118
e 7 120
e 7 122
e 7 131
e 7 134
e 7 138
e 7 144
e 7 145
e 7 146
e 7 148
e 7 152
e 7 153
e 7 157
e 7 169
e 7 172
e 7 175
e 7 188
e 7 192
e 8 22
e 8 29
e 8 31
e 8 36
e 8 37
e 8 39
e 8 41
e 8 43
e 8 44
e 8 49
e 8 54
e 8 56
e 8 59
e 8 64
e 8 69
e 8 71
e 8 74
e 8 91
e 8 92
e 8 97
e 8 101
e 8 103
e 8 115
e 8 116
e 8 139
e 8 142
e 8 144
e 8 147
e 8 157
e 8 162
e 8 165
e 8 169
e 8 186
e 8 198
e 9 10
e 9 12
e 9 13
e 9 16
e 9 24
e 9 26
e 9 27
e 9 34
e 9 44
e 9 45
e 9 53
e 9 55
e 9 58
e 9 63
e 9 72
e 9 80
e 9 81
e 9 82
e 9 87
e 9 88
e 9 103
e 9 104
e 9 111
e 9 116
e 9 121
e 9 126
e 9 130
e 9 135
e 9 143
e 9 147
e 9 150
e 9 154
e 9 161
e 9 164
e 9 165
e 9 168
e 9 172
e 9 189
e 9 190
e 9 200
e 10 11
e 10 15
e 10 19
e 10 24
e 10 26
e 10 28
e 10 29
e 10 33
e 10 35
e 10 36
e 10 40
e 10 42
e 10 44
e 10 47
e 10 51
e 10 54
e 10 58
e 10 59
e 10 63
e 10 67
e 10 68
e 10 69
e 10 73
e 10 75
e 10 82
e 10 93
e 10 96
e 10 101
e 10 105
e 10 111
e 10 113
e 10 115
e 10 126
e 10 127
e 10 133
e 10 135
e 10 140
e 10 146
e 10 155
e 10 158
e 10 164
e 10 167
e 10 168
e 10 169
e 10 172
e 10 174
e 10 179
e 10 182
e 10 185
e 10 188
e 10 190
e 10 200
e 11 15
e 11 18
e 11 21
e 11 32
e 11 39
e 11 47
e 11 49
e 11 50
e 11 55
e 11 58
e 11 60
e 11 65
e 11 66
e 11 67
e 11 78
e 11 81
e 11 85
e 11 88
e 11 90
e 11 102
e 11 113
e 11 119
e 11 120
e 11 126
e 11 128
e 11 132
e 11 138
e 11 150
e 11 151
e 11 159
e 11 170
e 11 173
e 11 179
e 11 185
e 11 188
e 11 192
e 11 193
e 11 196
e 11 198
e 12 15
e 12 19
e 12 26
e 12 36
e 12 47
e 12 50
e 12 64
e 12 66
e 12 75
e 12 78
e 12 87
e 12 93
e 12 96
e 12 105
e 12 106
e 12 107
e 12 113
e 12 117
e 12 118
e 12 121
e 12 125
e 12 128
e 12 130
e 12 134
e 12 158
e 12 165
e 12 169
e 12 172
e 12 174
e 12 175
e 12 177
e 12 192
e 12 193
e 12 199
e 13 29
e 13 34
e 13 37
e 13 43
e 13 44
e 13 45
e 13 56
e 13 58
e 13 60
e 13 70
e 13 73
e 13 75
e 13 76
e 13 80
e 13 84
e 13 86
e 13 87
e 13 94
e 13 106
e 13 109
e 13 128
e 13 129
e 13 135
e 13 137
e 13 140
e 13 141
e 13 143
e 13 183
e 13 187
e 14 17
e 14 23
e 14 24
e 14 25
e 14 54
e 14 55
e 14 59
e 14 63
e 14 82
e 14 98
e 14 99
e 14 100
e 14 105
e 14 106
e 14 109
e 14 111
e 14 117
e 14 125
e 14 135
e 14 139
e 14 147
e 14 148
e 14 155
e 14 162
e 14 172
e 14 174
e 14 178
e 14 180
e 14 190
e 14 194
e 14 198
e 14 199
e 15 23
e 15 28
e 15 35
e 15 36
e 15 39
e 15 40
e 15 41
e 15 44
e 15 56
e 15 63
e 15 64
e 15 66
e 15 69
e 15 74
e 15 75
e 15 77
e 15 100
e 15 103
e 15 109
e 15 110
e 15 134
e 15 143
e 15 149
e 15 153
e 15 156
e 15 160
e 15 162
e 15 166
e 15 169
e 15 171
e 15 176
e 15 179
e 15 187
e 15 188
e 16 20
e 16 22
e 16 23
e 16 24
e 16 26
e 16 31
e 16 37
e 16 42
e 16 47
e 16 55
e 16 59
e 16 62
e 16 67
e 16 73
e 16 74
e 16 80
e 16 82
e 16 96
e 16 99
e 16 103
e 16 105
e 16 110
e 16 113
e 16 115
e 16 121
e 16 124
e 16 125
e 16 127
e 16 141
e 16 144
e 16 145
e 16 150
e 16 152
e 16 158
e 16 161
e 16 163
e 16 166
e 16 171
e 16 182
e 16 191
e 17 21
e 17 22
e 17 37
e 17 42
e 17 43
e 17 48
e 17 51
e 17 57
e 17 59
e 17 63
e 17 83
e 17 91
e 17 93
e 17 95
e 17 99
e 17 105
e 17 111
e 17 121
e 17 135
e 17 143
e 17 154
e 17 156
e 17 157
e 17 158
e 17 161
e 17 167
e 17 168
e 17 169
e 17 174
e 17 175
e 17 177
e 17 186
e 17 195
e 17 198
e 18 19
e 18 28
e 18 30
e 18 35
e 18 43
e 18 48
e 18 53
e 18 56
e 18 57
e 18 61
e 18 69
e 18 74
e 18 75
e 18 77
e 18 78
e 18 81
e 18 86
e 18 88
e 18 93
e 18 105
e 18 108
e 18 113
e 18 118
e 18 121
e 18 125
e 18 129
e 18 130
e 18 136
e 18 141
e 18 146
e 18 151
e 18 158
e 18 162
e 18 165
e 18 167
e 18 168
e 18 173
e 18 176
e 18 180
e 18 182
e 18 191
e 18 194
e 18 195
e 18 197
e 18 200
e 19 29
e 19 44
e 19 46
e 19 56
e 19 72
e 19 79
e 19 86
e 19 93
e 19 97
e 19 105
e 19 106
e 19 125
e 19 129
e 19 132
e 19 139
e 19 148
e 19 152
e 19 153
e 19 157
e 19 162
e 19 169
e 19 192
e 19 194
e 19 196
e 19 199
e 20 23
e 20 30
e 20 53
e 20 58
e 20 83
e 20 84
e 20 85
e 20 86
e 20 87
e 20 101
e 20 102
e 20 111
e 20 113
e 20 122
e 20 123
e 20 128
e 20 129
e 20 130
e 20 134
e 20 135
e 20 138
e 20 167
e 20 169
e 20 174
e 20 200
e 21 33
e 21 37
e 21 42
e 21 43
e 21 54
e 21 56
e 21 57
e 21 59
e 21 66
e 21 67
e 21 80
e 21 84
e 21 87
e 21 91
e 21 99
e 21 100
e 21 104
e 21 107
e 21 108
e 21 114
e 21 115
e 21 117
e 21 118
e 21 130
e 21 145
e 21 149
e 21 150
e 21 151
e 21 163
e 21 167
e 21 182
e 21 184
e 22 23
e 22 29
e 22 35
e 22 36
e 22 38
e 22 40
e 22 45
e 22 46
e 22 49
e 22 51
e 22 60
e 22 62
e 22 63
e 22 67
e 22 69
e 22 73
e 22 75
e 22 78
e 22 79
e 22 83
e 22 90
e 22 104
e 22 125
e 22 129
e 22 131
e 22 132
e 22 137
e 22 144
e 22 147
e 22 148
e 22 151
e 22 155
e 22 159
e 22 165
e 22 168
e 22 170
e 22 174
e 22 180
e 22 189
e 22 192
e 22 196
e 23 51
e 23 52
e 23 57
e 23 65
e 23 68
e 23 75
e 23 76
e 23 82
e 23 85
e 23 91
e 23 98
e 23 126
e 23 134
e 23 143
e 23 145
e 23 160
e 23 163
e 23 175
e 23 176
e 23 181
e 23 182
e 23 193
e 23 195
e 24 26
e 24 27
e 24 31
e 24 33
e 24 38
e 24 40
e 24 50
e 24 56
e 24 75
e 24 76
e 24 77
e 24 78
e 24 83
e 24 84
e 24 93
e 24 95
e 24 109
e 24 110
e 24 113
e 24 121
e 24 126
e 24 128
e 24 136
e 24 137
e 24 139
e 24 157
e 24 166
e 24 176
e 24 181
e 24 191
e 24 192
e 24 197
e 25 30
e 25 34
e 25 38
e 25 50
e 25 51
e 25 59
e 25 62
e 25 65
e 25 71
e 25 77
e 25 85
e 25 100
e 25 103
e 25 108
e 25 114
e 25 116
e 25 117
e 25 125
e 25 131
e 25 136
e 25 143
e 25 148
e 25 149
e 25 151
e 25 161
e 25 167
e 25 180
e 25 188
e 25 193
e 25 194
e 25 197
e 25 199
e 26 36
e 26 45
e 26 51
e 26 56
e 26 59
e 26 61
e 26 62
e 26 65
e 26 83
e 26 87
e 26 95
e 26 100
e 26 102
e 26 103
e 26 105
e 26 109
e 26 111
e 26 113
e 26 114
e 26 117
e 26 119
e 26 125
e 26 133
e 26 138
e 26 148
e 26 155
e 26 160
e 26 174
e 26 175
e 26 178
e 26 179
e 26 186
e 26 187
e 26 190
e 27 28
e 27 29
e 27 30
e 27 36
e 27 44
e 27 53
e 27 62
e 27 74
e 27 81
e 27 84
e 27 85
e 27 89
e 27 94
e 27 97
e 27 100
e 27 112
e 27 122
e 27 123
e 27 124
e 27 129
e 27 131
e 27 133
e 27 134
e 27 144
e 27 152
e 27 155
e 27 158
e 27 163
e 27 165
e 27 168
e 27 170
e 27 192
e 27 196
e 27 198
e 28 29
e 28 33
e 28 36
e 28 41
e 28 44
e 28 50
e 28 56
e 28 59
e 28 68
e 28 77
e 28 78
e 28 87
e 28 91
e 28 95
e 28 104
e 28 117
e 28 118
e 28 121
e 28 126
e 28 128
e 28 130
e 28 137
e 28 141
e 28 143
e 28 147
e 28 150
e 28 151
e 28 152
e 28 157
e 28 158
e 28 161
e 28 170
e 28 171
e 28 176
e 28 183
e 28 185
e 28 189
e 28 191
e 28 196
e 28 200
e 29 32
e 29 35
e 29 43
e 29 56
e 29 64
e 29 72
e 29 88
e 29 102
e 29 104
e 29 105
e 29 111
e 29 113
e 29 116
e 29 124
e 29 133
e 29 138
e 29 156
e 29 163
e 29 165
e 29 170
e 29 176
e 29 193
e 29 195
e 29 198
e 30 44
e 30 45
e 30 47
e 30 48
e 30 54
e 30 58
e 30 61
e 30 66
e 30 72
e 30 75
e 30 84
e 30 91
e 30 93
e 30 99
e 30 100
e 30 101
e 30 105
e 30 107
e 30 108
e 30 121
e 30 129
e 30 134
e 30 139
e 30 140
e 30 143
e 30 148
e 30 154
e 30 172
e 30 173
e 30 176
e 30 187
e 30 190
e 30 196
e 30 198
e 30 199
e 31 39
e 31 43
e 31 44
e 31 47
e 31 48
e 31 50
e 31 55
e 31 63
e 31 67
e 31 70
e 31 72
e 31 74
e 31 76
e 31 77
e 31 87
e 31 95
e 31 98
e 31 100
e 31 118
e 31 124
e 31 125
e 31 128
e 31 135
e 31 136
e 31 138
e 31 139
e 31 142
e 31 144
e 31 150
e 31 154
e 31 161
e 31 163
e 31 175
e 31 178
e 31 180
e 31 184
e 31 189
e 31 191
e 31 199
e 32 45
e 32 46
e 32 47
e 32 59
e 32 61
e 32 63
e 32 67
e 32 71
e 32 72
e 32 79
e 32 81
e 32 82
e 32 91
e 32 93
e 32 99
e 32 100
e 32 104
e 32 114
e 32 116
e 32 118
e 32 126
e 32 129
e 32 132
e 32 133
e 32 138
e 32 139
e 32 144
e 32 149
e 32 150
e 32 153
e 32 155
e 32 160
e 32 165
e 32 168
e 32 169
e 32 171
e 32 172
e 32 173
e 32 179
e 32 188
e 32 190
e 32 194
e 32 197
e 32 198
e 33 56
e 33 57
e 33 60
e 33 62
e 33 63
e 33 69
e 33 70
e 33 75
e 33 88
e 33 92
e 33 94
e 33 101
e 33 102
e 33 104
e 33 107
e 33 110
e 33 121
e 33 123
e 33 126
e 33 142
e 33 143
e 33 154
e 33 171
e 33 173
e 33 177
e 33 179
e 33 185
e 33 188
e 33 191
e 33 199
e 34 43
e 34 48
e 34 60
e 34 61
e 34 62
e 34 66
e 34 69
e 34 70
e 34 79
e 34 80
e 34 84
e 34 87
e 34 93
e 34 105
e 34 107
e 34 119
e 34 121
e 34 123
e 34 124
e 34 128
e 34 130
e 34 132
e 34 138
e 34 142
e 34 145
e 34 149
e 34 152
e 34 159
e 34 162
e 34 166
e 34 171
e 34 180
e 34 187
e 34 188
e 34 195
e 35 39
e 35 42
e 35 44
e 35 49
e 35 54
e 35 55
e 35 62
e 35 63
e 35 74
e 35 76
e 35 77
e 35 80
e 35 81
e 35 83
e 35 90
e 35 107
e 35 124
e 35 130
e 35 131
e 35 134
e 35 136
e 35 138
e 35 141
e 35 142
e 35 144
e 35 148
e 35 153
e 35 155
e 35 158
e 35 165
e 35 172
e 35 189
e 35 194
e 35 199
e 36 53
e 36 62
e 36 64
e 36 65
e 36 66
e 36 74
e 36 76
e 36 79
e 36 80
e 36 82
e 36 84
e 36 98
e 36 100
e 36 111
e 36 118
e 36 121
e 36 134
e 36 138
e 36 139
e 36 142
e 36 144
e 36 146
e 36 147
e 36 154
e 36 161
e 36 167
e 36 170
e 36 171
e 36 176
e 36 177
e 36 179
e 36 180
e 36 194
e 37 39
e 37 44
e 37 45
e 37 48
e 37 54
e 37 58
e 37 61
e 37 63
e 37 72
e 37 74
e 37 78
e 37 95
e 37 106
e 37 111
e 37 112
e 37 115
e 37 124
e 37 126
e 37 127
e 37 130
e 37 134
e 37 138
e 37 162
e 37 163
e 37 167
e 37 174
e 37 186
e 37 189
e 38 44
e 38 50
e 38 57
e 38 69
e 38 70
e 38 73
e 38 74
e 38 77
e 38 78
e 38 87
e 38 98
e 38 100
e 38 102
e 38 107
e 38 112
e 38 113
e 38 120
e 38 133
e 38 135
e 38 136
e 38 141
e 38 147
e 38 157
e 38 161
e 38 174
e 38 178
e 38 180
e 38 181
e 38 182
e 38 184
e 38 192
e 38 196
e 39 40
e 39 41
e 39 45
e 39 48
e 39 49
e 39 56
e 39 60
e 39 66
e 39 68
e 39 84
e 39 88
e 39 97
e 39 100
e 39 105
e 39 109
e 39 118
e 39 122
e 39 152
e 39 162
e 39 166
e 39 185
e 39 198
e 40 49
e 40 56
e 40 61
e 40 69
e 40 70
e 40 72
e 40 79
e 40 90
e 40 104
e 40 107
e 40 108
e 40 109
e 40 110
e 40 121
e 40 123
e 40 130
e 40 134
e 40 143
e 40 147
e 40 148
e 40 155
e 40 163
e 40 174
e 40 178
e 40 187
e 41 42
e 41 43
e 41 48
e 41 54
e 41 57
e 41 58
e 41 61
e 41 69
e 41 70
e 41 71
e 41 85
e 41 91
e 41 94
e 41 101
e 41 108
e 41 109
e 41 114
e 41 122
e 41 126
e 41 139
e 41 162
e 41 165
e 41 170
e 41 172
e 41 173
e 41 178
e 41 179
e 41 182
e 41 196
e 42 46
e 42 49
e 42 53
e 42 54
e 42 59
e 42 60
e 42 73
e 42 75
e 42 79
e 42 83
e 42 86
e 42 89
e 42 95
e 42 96
e 42 99
e 42 100
e 42 105
e 42 109
e 42 110
e 42 113
e 42 119
e 42 121
e 42 130
e 42 135
e 42 150
e 42 152
e 42 153
e 42 171
e 42 174
e 42 176
e 42 185
e 42 188
e 42 197
e 43 45
e 43 46
e 43 52
e 43 63
e 43 65
e 43 67
e 43 69
e 43 77
e 43 83
e 43 90
e 43 93
e 43 94
e 43 98
e 43 107
e 43 109
e 43 112
e 43 116
e 43 118
e 43 120
e 43 122
e 43 124
e 43 128
e 43 130
e 43 133
e 43 141
e 43 146
e 43 148
e 43 156
e 43 158
e 43 159
e 43 162
e 43 163
e 43 164
e 43 171
e 43 172
e 43 182
e 43 198
e 44 47
e 44 59
e 44 60
e 44 61
e 44 74
e 44 76
e 44 83
e 44 87
e 44 91
e 44 100
e 44 104
e 44 105
e 44 106
e 44 107
e 44 108
e 44 109
e 44 110
e 44 112
e 44 122
e 44 127
e 44 129
e 44 134
e 44 136
e 44 137
e 44 139
e 44 147
e 44 148
e 44 150
e 44 154
e 44 157
e 44 169
e 44 172
e 44 174
e 44 177
e 44 181
e 44 190
e 44 196
e 44 199
e 45 47
e 45 48
e 45 50
e 45 52
e 45 60
e 45 62
e 45 64
e 45 68
e 45 70
e 45 73
e 45 74
e 45 78
e 45 81
e 45 82
e 45 96
e 45 100
e 45 111
e 45 124
e 45 126
e 45 127
e 45 129
e 45 130
e 45 133
e 45 134
e 45 143
e 45 147
e 45 167
e 45 168
e 45 170
e 45 172
e 45 177
e 45 189
e 45 192
e 45 197
e 45 199
e 46 53
e 46 57
e 46 62
e 46 65
e 46 66
e 46 70
e 46 79
e 46 82
e 46 85
e 46 89
e 46 91
e 46 95
e 46 96
e 46 103
e 46 110
e 46 111
e 46 117
e 46 121
e 46 131
e 46 132
e 46 134
e 46 137
e 46 139
e 46 148
e 46 156
e 46 160
e 46 164
e 46 171
e 46 173
e 46 181
e 46 191
e 46 195
e 46 198
e 47 49
e 47 50
e 47 56
e 47 65
e 47 70
e 47 72
e 47 74
e 47 75
e 47 81
e 47 84
e 47 95
e 47 96
e 47 105
e 47 108
e 47 110
e 47 116
e 47 121
e 47 128
e 47 139
e 47 141
e 47 142
e 47 146
e 47 150
e 47 153
e 47 159
e 47 168
e 47 175
e 47 180
e 47 181
e 47 186
e 47 187
e 47 188
e 47 189
e 47 194
e 47 197
e 47 198
e 47 199
e 47 200
e 48 50
e 48 51
e 48 54
e 48 56
e 48 57
e 48 61
e 48 62
e 48 69
e 48 72
e 48 76
e 48 83
e 48 86
e 48 87
e 48 89
e 48 91
e 48 93
e 48 98
e 48 104
e 48 114
e 48 137
e 48 138
e 48 145
e 48 154
e 48 165
e 48 170
e 48 172
e 48 187
e 48 196
e 48 198
e 49 51
e 49 57
e 49 58
e 49 60
e 49 62
e 49 63
e 49 67
e 49 69
e 49 79
e 49 86
e 49 95
e 49 111
e 49 113
e 49 119
e 49 125
e 49 129
e 49 132
e 49 136
e 49 138
e 49 145
e 49 155
e 49 156
e 49 164
e 49 168
e 49 170
e 49 176
e 50 57
e 50 58
e 50 65
e 50 76
e 50 82
e 50 84
e 50 89
e 50 90
e 50 110
e 50 114
e 50 116
e 50 118
e 50 121
e 50 122
e 50 124
e 50 130
e 50 139
e 50 143
e 50 146
e 50 147
e 50 152
e 50 162
e 50 168
e 50 183
e 50 185
e 50 187
e 50 191
e 50 194
e 50 198
e 51 54
e 51 56
e 51 62
e 51 65
e 51 69
e 51 77
e 51 84
e 51 93
e 51 97
e 51 98
e 51 101
e 51 110
e 51 115
e 51 120
e 51 122
e 51 128
e 51 130
e 51 152
e 51 154
e 51 157
e 51 162
e 51 167
e 51 170
e 51 173
e 51 182
e 51 183
e 52 62
e 52 64
e 52 65
e 52 66
e 52 73
e 52 78
e 52 79
e 52 100
e 52 112
e 52 114
e 52 117
e 52 121
e 52 122
e 52 128
e 52 129
e 52 143
e 52 150
e 52 161
e 52 163
e 52 165
e 52 177
e 52 184
e 52 185
e 52 192
e 52 194
e 53 58
e 53 61
e 53 63
e 53 68
e 53 70
e 53 79
e 53 82
e 53 88
e 53 90
e 53 92
e 53 97
e 53 98
e 53 107
e 53 110
e 53 117
e 53 118
e 53 124
e 53 134
e 53 140
e 53 142
e 53 148
e 53 152
e 53 170
e 53 171
e 53 181
e 53 186
e 53 189
e 53 193
e 53 199
e 54 55
e 54 59
e 54 60
e 54 61
e 54 73
e 54 78
e 54 86
e 54 87
e 54 92
e 54 103
e 54 117
e 54 120
e 54 127
e 54 135
e 54 140
e 54 142
e 54 147
e 54 157
e 54 158
e 54 160
e 54 169
e 54 178
e 54 190
e 54 194
e 54 196
e 54 200
e 55 57
e 55 59
e 55 60
e 55 66
e 55 70
e 55 72
e 55 76
e 55 80
e 55 83
e 55 84
e 55 87
e 55 91
e 55 93
e 55 96
e 55 99
e 55 100
e 55 115
e 55 118
e 55 125
e 55 126
e 55 128
e 55 130
e 55 131
e 55 132
e 55 134
e 55 135
e 55 139
e 55 148
e 55 156
e 55 160
e 55 161
e 55 164
e 55 169
e 55 170
e 55 184
e 55 185
e 55 190
e 56 57
e 56 61
e 56 63
e 56 69
e 56 72
e 56 74
e 56 85
e 56 88
e 56 91
e 56 92
e 56 94
e 56 97
e 56 101
e 56 103
e 56 110
e 56 118
e 56 123
e 56 127
e 56 137
e 56 142
e 56 144
e 56 154
e 56 160
e 56 168
e 56 169
e 56 172
e 56 175
e 56 177
e 56 182
e 56 187
e 56 193
e 56 194
e 56 196
e 56 199
e 57 58
e 57 59
e 57 60
e 57 63
e 57 72
e 57 79
e 57 83
e 57 84
e 57 91
e 57 99
e 57 100
e 57 124
e 57 135
e 57 147
e 57 152
e 57 158
e 57 159
e 57 167
e 57 168
e 57 170
e 57 176
e 57 182
e 57 183
e 57 190
e 57 197
e 57 198
e 58 59
e 58 70
e 58 76
e 58 77
e 58 78
e 58 82
e 58 85
e 58 86
e 58 89
e 58 102
e 58 105
e 58 113
e 58 119
e 58 125
e 58 127
e 58 152
e 58 159
e 58 169
e 58 176
e 58 181
e 58 182
e 58 186
e 58 187
e 58 199
e 58 200
e 59 72
e 59 83
e 59 84
e 59 91
e 59 99
e 59 100
e 59 104
e 59 105
e 59 111
e 59 114
e 59 125
e 59 128
e 59 132
e 59 135
e 59 141
e 59 146
e 59 152
e 59 164
e 59 186
e 59 194
e 60 63
e 60 73
e 60 76
e 60 77
e 60 78
e 60 79
e 60 81
e 60 84
e 60 85
e 60 89
e 60 99
e 60 109
e 60 112
e 60 113
e 60 115
e 60 121
e 60 122
e 60 123
e 60 125
e 60 127
e 60 138
e 60 140
e 60 145
e 60 146
e 60 148
e 60 149
e 60 154
e 60 158
e 60 160
e 60 163
e 60 164
e 60 178
e 60 187
e 60 196
e 60 200
e 61 66
e 61 80
e 61 89
e 61 100
e 61 115
e 61 118
e 61 127
e 61 139
e 61 142
e 61 152
e 61 157
e 61 165
e 61 168
e 61 177
e 61 178
e 61 189
e 62 65
e 62 67
e 62 82
e 62 90
e 62 91
e 62 92
e 62 101
e 62 102
e 62 103
e 62 104
e 62 110
e 62 111
e 62 115
e 62 116
e 62 118
e 62 119
e 62 125
e 62 130
e 62 131
e 62 136
e 62 137
e 62 138
e 62 145
e 62 146
e 62 154
e 62 158
e 62 160
e 62 161
e 62 162
e 62 167
e 62 171
e 62 181
e 62 192
e 62 193
e 63 65
e 63 75
e 63 82
e 63 87
e 63 99
e 63 105
e 63 107
e 63 112
e 63 118
e 63 119
e 63 122
e 63 124
e 63 127
e 63 129
e 63 137
e 63 139
e 63 147
e 63 154
e 63 155
e 63 160
e 63 162
e 63 164
e 63 166
e 63 172
e 63 179
e 63 186
e 63 194
e 64 67
e 64 70
e 64 72
e 64 79
e 64 82
e 64 83
e 64 84
e 64 85
e 64 89
e 64 94
e 64 99
e 64 101
e 64 103
e 64 108
e 64 114
e 64 121
e 64 125
e 64 134
e 64 139
e 64 148
e 64 154
e 64 158
e 64 159
e 64 160
e 64 161
e 64 165
e 64 171
e 64 183
e 64 186
e 64 188
e 64 193
e 64 198
e 65 67
e 65 68
e 65 77
e 65 80
e 65 81
e 65 84
e 65 85
e 65 86
e 65 89
e 65 95
e 65 99
e 65 106
e 65 107
e 65 112
e 65 114
e 65 117
e 65 118
e 65 123
e 65 126
e 65 129
e 65 132
e 65 133
e 65 137
e 65 141
e 65 147
e 65 149
e 65 151
e 65 153
e 65 157
e 65 163
e 65 173
e 65 187
e 65 190
e 66 73
e 66 76
e 66 79
e 66 82
e 66 88
e 66 97
e 66 99
e 66 112
e 66 114
e 66 117
e 66 125
e 66 129
e 66 133
e 66 137
e 66 149
e 66 150
e 66 156
e 66 169
e 66 171
e 66 175
e 66 179
e 66 181
e 66 182
e 66 185
e 66 194
e 66 199
e 67 70
e 67 71
e 67 73
e 67 82
e 67 87
e 67 91
e 67 96
e 67 98
e 67 103
e 67 107
e 67 113
e 67 118
e 67 125
e 67 129
e 67 134
e 67 135
e 67 139
e 67 145
e 67 155
e 67 156
e 67 160
e 67 162
e 67 176
e 67 186
e 67 188
e 67 192
e 67 199
e 67 200
e 68 69
e 68 71
e 68 79
e 68 80
e 68 94
e 68 95
e 68 101
e 68 110
e 68 112
e 68 117
e 68 120
e 68 130
e 68 132
e 68 135
e 68 146
e 68 162
e 68 165
e 68 166
e 68 168
e 68 171
e 68 180
e 68 185
e 68 187
e 68 188
e 68 193
e 68 196
e 68 198
e 68 199
e 69 80
e 69 103
e 69 104
e 69 112
e 69 114
e 69 116
e 69 127
e 69 130
e 69 137
e 69 139
e 69 155
e 69 157
e 69 166
e 69 174
e 69 177
e 69 188
e 69 190
e 69 191
e 69 195
e 70 78
e 70 84
e 70 89
e 70 93
e 70 99
e 70 102
e 70 103
e 70 112
e 70 113
e 70 115
e 70 116
e 70 120
e 70 125
e 70 126
e 70 131
e 70 145
e 70 147
e 70 148
e 70 151
e 70 153
e 70 159
e 70 160
e 70 161
e 70 164
e 70 165
e 70 173
e 70 175
e 70 176
e 70 178
e 70 183
e 70 190
e 70 197
e 70 200
e 71 82
e 71 93
e 71 95
e 71 116
e 71 122
e 71 132
e 71 134
e 71 145
e 71 147
e 71 149
e 71 151
e 71 169
e 71 176
e 71 184
e 71 188
e 71 190
e 71 191
e 71 192
e 72 73
e 72 78
e 72 85
e 72 86
e 72 88
e 72 99
e 72 100
e 72 104
e 72 112
e 72 115
e 72 136
e 72 137
e 72 138
e 72 146
e 72 147
e 72 148
e 72 154
e 72 158
e 72 162
e 72 175
e 72 177
e 72 178
e 72 185
e 72 200
e 73 79
e 73 82
e 73 86
e 73 94
e 73 95
e 73 96
e 73 98
e 73 101
e 73 105
e 73 112
e 73 114
e 73 119
e 73 121
e 73 127
e 73 131
e 73 134
e 73 147
e 73 154
e 73 156
e 73 157
e 73 161
e 73 166
e 73 167
e 73 180
e 73 183
e 73 188
e 74 80
e 74 84
e 74 85
e 74 86
e 74 90
e 74 93
e 74 94
e 74 97
e 74 98
e 74 100
e 74 101
e 74 107
e 74 109
e 74 111
e 74 120
e 74 141
e 74 143
e 74 145
e 74 152
e 74 156
e 74 159
e 74 162
e 74 165
e 74 182
e 74 183
e 74 187
e 74 188
e 74 200
e 75 77
e 75 80
e 75 81
e 75 82
e 75 84
e 75 89
e 75 91
e 75 93
e 75 94
e 75 95
e 75 101
e 75 103
e 75 105
e 75 108
e 75 109
e 75 114
e 75 117
e 75 118
e 75 120
e 75 121
e 75 122
e 75 124
e 75 129
e 75 132
e 75 134
e 75 139
e 75 141
e 75 150
e 75 157
e 75 171
e 75 172
e 75 174
e 75 179
e 75 190
e 75 192
e 75 196
e 76 80
e 76 81
e 76 83
e 76 94
e 76 96
e 76 104
e 76 107
e 76 113
e 76 122
e 76 129
e 76 132
e 76 133
e 76 145
e 76 148
e 76 149
e 76 162
e 76 163
e 76 164
e 76 168
e 76 170
e 76 171
e 76 176
e 76 177
e 76 180
e 76 182
e 76 184
e 76 187
e 76 190
e 76 199
e 77 81
e 77 83
e 77 104
e 77 105
e 77 112
e 77 118
e 77 119
e 77 122
e 77 125
e 77 133
e 77 137
e 77 139
e 77 146
e 77 147
e 77 156
e 77 162
e 77 167
e 77 168
e 77 173
e 77 175
e 77 176
e 77 177
e 77 185
e 77 189
e 77 190
e 77 191
e 77 193
e 77 195
e 77 197
e 78 79
e 78 80
e 78 81
e 78 82
e 78 93
e 78 95
e 78 96
e 78 110
e 78 116
e 78 118
e 78 122
e 78 124
e 78 130
e 78 134
e 78 137
e 78 142
e 78 151
e 78 158
e 78 162
e 78 167
e 78 169
e 78 176
e 78 177
e 78 183
e 78 185
e 78 187
e 78 188
e 78 194
e 78 199
e 79 84
e 79 100
e 79 104
e 79 108
e 79 109
e 79 120
e 79 130
e 79 131
e 79 133
e 79 138
e 79 140
e 79 144
e 79 147
e 79 151
e 79 154
e 79 158
e 79 160
e 79 162
e 79 163
e 79 167
e 79 171
e 79 172
e 79 176
e 79 187
e 79 189
e 79 194
e 80 86
e 80 88
e 80 96
e 80 97
e 80 101
e 80 102
e 80 109
e 80 126
e 80 133
e 80 134
e 80 139
e 80 140
e 80 143
e 80 144
e 80 150
e 80 169
e 80 173
e 80 178
e 80 187
e 80 191
e 80 194
e 81 85
e 81 89
e 81 94
e 81 95
e 81 100
e 81 118
e 81 122
e 81 123
e 81 131
e 81 133
e 81 146
e 81 149
e 81 155
e 81 156
e 81 159
e 81 164
e 81 171
e 81 196
e 82 84
e 82 86
e 82 90
e 82 93
e 82 99
e 82 103
e 82 104
e 82 105
e 82 106
e 82 116
e 82 117
e 82 119
e 82 124
e 82 128
e 82 135
e 82 138
e 82 143
e 82 150
e 82 156
e 82 158
e 82 162
e 82 164
e 82 167
e 82 172
e 82 182
e 82 189
e 82 190
e 82 192
e 83 101
e 83 112
e 83 116
e 83 117
e 83 126
e 83 127
e 83 128
e 83 134
e 83 135
e 83 141
e 83 166
e 83 171
e 83 177
e 83 190
e 83 193
e 83 198
e 83 199
e 84 105
e 84 109
e 84 110
e 84 122
e 84 126
e 84 131
e 84 135
e 84 136
e 84 137
e 84 141
e 84 143
e 84 144
e 84 158
e 84 161
e 84 176
e 84 180
e 84 185
e 84 190
e 84 191
e 84 194
e 84 197
e 85 94
e 85 99
e 85 105
e 85 110
e 85 117
e 85 118
e 85 128
e 85 132
e 85 134
e 85 135
e 85 142
e 85 143
e 85 144
e 85 148
e 85 149
e 85 154
e 85 155
e 85 157
e 85 161
e 85 163
e 85 166
e 85 183
e 85 189
e 85 193
e 86 87
e 86 91
e 86 92
e 86 94
e 86 95
e 86 102
e 86 106
e 86 107
e 86 117
e 86 123
e 86 125
e 86 126
e 86 127
e 86 131
e 86 134
e 86 135
e 86 140
e 86 147
e 86 150
e 86 151
e 86 161
e 86 172
e 86 173
e 86 176
e 86 189
e 87 94
e 87 95
e 87 101
e 87 103
e 87 112
e 87 116
e 87 120
e 87 122
e 87 129
e 87 137
e 87 144
e 87 154
e 87 155
e 87 161
e 87 166
e 87 172
e 87 178
e 87 188
e 87 189
e 88 90
e 88 103
e 88 105
e 88 107
e 88 114
e 88 119
e 88 120
e 88 128
e 88 129
e 88 131
e 88 132
e 88 136
e 88 138
e 88 144
e 88 154
e 88 155
e 88 160
e 88 162
e 88 163
e 88 168
e 88 178
e 88 181
e 88 187
e 88 190
e 88 198
e 89 93
e 89 100
e 89 110
e 89 113
e 89 116
e 89 130
e 89 136
e 89 140
e 89 141
e 89 145
e 89 146
e 89 150
e 89 153
e 89 154
e 89 155
e 89 157
e 89 158
e 89 161
e 89 164
e 89 167
e 89 171
e 89 179
e 89 180
e 89 182
e 89 185
e 89 190
e 89 192
e 89 193
e 89 198
e 90 92
e 90 112
e 90 117
e 90 123
e 90 125
e 90 130
e 90 134
e 90 139
e 90 141
e 90 146
e 90 148
e 90 159
e 90 165
e 90 172
e 90 173
e 90 178
e 90 181
e 90 184
e 90 187
e 90 191
e 90 198
e 91 96
e 91 108
e 91 110
e 91 113
e 91 114
e 91 121
e 91 122
e 91 138
e 91 141
e 91 148
e 91 151
e 91 153
e 91 156
e 91 167
e 91 175
e 91 177
e 91 178
e 91 179
e 92 96
e 92 105
e 92 116
e 92 121
e 92 125
e 92 128
e 92 131
e 92 136
e 92 138
e 92 144
e 92 146
e 92 148
e 92 149
e 92 151
e 92 161
e 92 166
e 92 168
e 92 169
e 92 176
e 92 191
e 92 192
e 92 194
e 92 196
e 93 98
e 93 99
e 93 106
e 93 111
e 93 112
e 93 114
e 93 116
e 93 118
e 93 129
e 93 130
e 93 132
e 93 134
e 93 150
e 93 153
e 93 166
e 93 169
e 93 187
e 93 192
e 93 198
e 94 100
e 94 116
e 94 117
e 94 120
e 94 139
e 94 166
e 94 170
e 94 174
e 94 179
e 94 180
e 94 187
e 94 194
e 95 98
e 95 102
e 95 105
e 95 106
e 95 108
e 95 119
e 95 120
e 95 121
e 95 122
e 95 132
e 95 140
e 95 146
e 95 148
e 95 149
e 95 159
e 95 161
e 95 164
e 95 181
e 95 186
e 95 187
e 95 192
e 95 199
e 96 97
e 96 106
e 96 112
e 96 119
e 96 123
e 96 127
e 96 132
e 96 134
e 96 139
e 96 141
e 96 144
e 96 148
e 96 149
e 96 152
e 96 157
e 96 159
e 96 160
e 96 161
e 96 165
e 96 166
e 96 178
e 96 185
e 96 193
e 96 194
e 96 199
e 97 103
e 97 110
e 97 118
e 97 120
e 97 131
e 97 134
e 97 135
e 97 137
e 97 140
e 97 147
e 97 151
e 97 156
e 97 164
e 97 171
e 97 175
e 97 178
e 97 179
e 97 189
e 97 193
e 97 196
e 97 198
e 98 104
e 98 112
e 98 113
e 98 119
e 98 120
e 98 124
e 98 126
e 98 128
e 98 136
e 98 143
e 98 148
e 98 164
e 98 167
e 98 168
e 98 180
e 98 183
e 98 194
e 99 101
e 99 105
e 99 106
e 99 111
e 99 115
e 99 119
e 99 121
e 99 129
e 99 132
e 99 134
e 99 135
e 99 136
e 99 141
e 99 149
e 99 154
e 99 155
e 99 157
e 99 160
e 99 162
e 99 163
e 99 170
e 99 171
e 99 174
e 99 176
e 99 177
e 99 181
e 99 182
e 99 187
e 100 103
e 100 106
e 100 124
e 100 125
e 100 127
e 100 132
e 100 133
e 100 135
e 100 140
e 100 142
e 100 148
e 100 152
e 100 161
e 100 163
e 100 164
e 100 165
e 100 170
e 100 173
e 100 182
e 100 183
e 100 192
e 100 197
e 100 198
e 101 103
e 101 107
e 101 112
e 101 115
e 101 121
e 101 123
e 101 127
e 101 130
e 101 140
e 101 141
e 101 156
e 101 160
e 101 163
e 101 164
e 101 167
e 101 172
e 101 174
e 101 179
e 101 182
e 101 184
e 101 191
e 101 194
e 101 195
e 101 198
e 101 200
e 102 103
e 102 107
e 102 108
e 102 115
e 102 116
e 102 118
e 102 122
e 102 139
e 102 144
e 102 145
e 102 146
e 102 151
e 102 152
e 102 166
e 102 167
e 102 187
e 102 188
e 102 189
e 102 194
e 102 200
e 103 108
e 103 109
e 103 114
e 103 119
e 103 124
e 103 130
e 103 134
e 103 138
e 103 149
e 103 155
e 103 159
e 103 160
e 103 168
e 103 183
e 103 189
e 103 192
e 104 110
e 104 112
e 104 113
e 104 114
e 104 128
e 104 142
e 104 147
e 104 151
e 104 158
e 104 159
e 104 161
e 104 162
e 104 163
e 104 166
e 104 173
e 104 181
e 104 186
e 104 188
e 104 189
e 104 200
e 105 109
e 105 111
e 105 116
e 105 125
e 105 129
e 105 148
e 105 149
e 105 150
e 105 153
e 105 168
e 105 173
e 105 181
e 106 107
e 106 110
e 106 114
e 106 119
e 106 122
e 106 123
e 106 132
e 106 141
e 106 142
e 106 143
e 106 146
e 106 150
e 106 152
e 106 157
e 106 163
e 106 167
e 106 182
e 106 188
e 106 193
e 107 132
e 107 140
e 107 145
e 107 150
e 107 158
e 107 162
e 107 165
e 107 168
e 107 171
e 107 175
e 107 183
e 107 186
e 107 198
e 108 114
e 108 130
e 108 134
e 108 136
e 108 140
e 108 141
e 108 145
e 108 146
e 108 150
e 108 151
e 108 154
e 108 158
e 108 160
e 108 169
e 108 170
e 108 174
e 108 177
e 108 185
e 108 186
e 108 199
e 108 200
e 109 122
e 109 124
e 109 126
e 109 127
e 109 128
e 109 141
e 109 142
e 109 144
e 109 146
e 109 148
e 109 175
e 109 182
e 109 185
e 109 186
e 109 189
e 109 193
e 109 199
e 109 200
e 110 115
e 110 118
e 110 126
e 110 130
e 110 132
e 110 153
e 110 156
e 110 168
e 110 170
e 110 198
e 111 115
e 111 119
e 111 120
e 111 121
e 111 127
e 111 137
e 111 142
e 111 146
e 111 155
e 111 158
e 111 160
e 111 162
e 111 167
e 111 175
e 111 180
e 111 187
e 111 193
e 111 194
e 111 199
e 112 115
e 112 116
e 112 120
e 112 125
e 112 131
e 112 138
e 112 144
e 112 156
e 112 158
e 112 159
e 112 160
e 112 167
e 112 168
e 112 169
e 112 173
e 112 175
e 112 179
e 112 180
e 112 185
e 112 187
e 112 194
e 112 199
e 112 200
e 113 116
e 113 124
e 113 131
e 113 135
e 113 140
e 113 143
e 113 146
e 113 147
e 113 148
e 113 150
e 113 151
e 113 157
e 113 165
e 113 172
e 113 179
e 113 180
e 113 181
e 113 182
e 113 183
e 113 185
e 113 187
e 113 193
e 113 196
e 114 118
e 114 119
e 114 127
e 114 128
e 114 129
e 114 130
e 114 132
e 114 133
e 114 134
e 114 135
e 114 138
e 114 140
e 114 147
e 114 148
e 114 159
e 114 161
e 114 166
e 114 167
e 114 171
e 114 173
e 114 174
e 114 176
e 114 186
e 114 192
e 114 199
e 115 119
e 115 122
e 115 131
e 115 132
e 115 137
e 115 143
e 115 155
e 115 158
e 115 160
e 115 165
e 115 166
e 115 168
e 115 175
e 115 176
e 115 177
e 115 181
e 115 187
e 115 188
e 115 189
e 115 190
e 115 192
e 115 196
e 116 118
e 116 122
e 116 124
e 116 125
e 116 134
e 116 137
e 116 138
e 116 141
e 116 146
e 116 150
e 116 153
e 116 154
e 116 156
e 116 163
e 116 164
e 116 179
e 116 184
e 116 189
e 116 197
e 116 198
e 116 199
e 116 200
e 117 126
e 117 132
e 117 139
e 117 140
e 117 143
e 117 150
e 117 154
e 117 161
e 117 170
e 117 171
e 117 181
e 117 187
e 117 195
e 117 196
e 117 198
e 118 123
e 118 125
e 118 134
e 118 137
e 118 141
e 118 143
e 118 146
e 118 147
e 118 149
e 118 153
e 118 157
e 118 170
e 118 174
e 118 179
e 118 181
e 118 186
e 118 189
e 118 191
e 118 196
e 118 199
e 119 132
e 119 136
e 119 145
e 119 147
e 119 148
e 119 149
e 119 150
e 119 156
e 119 159
e 119 160
e 119 174
e 119 196
e 119 198
e 120 123
e 120 126
e 120 129
e 120 134
e 120 136
e 120 140
e 120 146
e 120 147
e 120 149
e 120 153
e 120 157
e 120 160
e 120 163
e 120 166
e 120 169
e 120 170
e 120 183
e 120 185
e 120 198
e 121 122
e 121 133
e 121 139
e 121 143
e 121 144
e 121 149
e 121 150
e 121 154
e 121 157
e 121 158
e 121 159
e 121 162
e 121 165
e 121 166
e 121 170
e 121 175
e 121 181
e 121 185
e 121 187
e 121 188
e 121 191
e 121 192
e 121 199
e 122 144
e 122 145
e 122 154
e 122 158
e 122 160
e 122 182
e 122 183
e 122 184
e 122 187
e 122 188
e 122 195
e 123 125
e 123 135
e 123 138
e 123 145
e 123 146
e 123 147
e 123 162
e 123 172
e 123 176
e 123 181
e 123 183
e 123 185
e 123 186
e 123 189
e 123 190
e 123 195
e 124 127
e 124 131
e 124 136
e 124 146
e 124 157
e 124 161
e 124 162
e 124 166
e 124 176
e 124 180
e 124 181
e 124 187
e 124 188
e 124 195
e 124 196
e 124 197
e 124 199
e 125 135
e 125 136
e 125 137
e 125 139
e 125 140
e 125 151
e 125 157
e 125 158
e 125 160
e 125 161
e 125 164
e 125 165
e 125 170
e 125 171
e 125 182
e 125 183
e 125 191
e 126 127
e 126 128
e 126 132
e 126 138
e 126 148
e 126 151
e 126 156
e 126 159
e 126 161
e 126 174
e 126 175
e 126 179
e 126 180
e 126 188
e 126 191
e 126 192
e 126 193
e 126 199
e 127 129
e 127 132
e 127 141
e 127 151
e 127 157
e 127 158
e 127 162
e 127 168
e 127 173
e 127 182
e 127 188
e 127 194
e 127 198
e 127 200
e 128 146
e 128 148
e 128 150
e 128 160
e 128 162
e 128 165
e 128 166
e 128 167
e 128 169
e 128 177
e 128 186
e 128 187
e 128 189
e 128 190
e 128 191
e 129 130
e 129 140
e 129 144
e 129 147
e 129 154
e 129 156
e 129 166
e 129 168
e 129 171
e 129 185
e 129 193
e 129 196
e 129 200
e 130 132
e 130 134
e 130 137
e 130 153
e 130 160
e 130 161
e 130 167
e 130 168
e 130 174
e 130 177
e 130 180
e 130 181
e 130 196
e 130 197
e 131 132
e 131 137
e 131 138
e 131 139
e 131 140
e 131 150
e 131 151
e 131 153
e 131 155
e 131 157
e 131 158
e 131 171
e 131 177
e 131 179
e 131 192
e 131 196
e 131 197
e 132 139
e 132 141
e 132 145
e 132 148
e 132 150
e 132 152
e 132 157
e 132 162
e 132 174
e 132 180
e 132 181
e 132 189
e 132 200
e 133 142
e 133 151
e 133 155
e 133 159
e 133 166
e 133 168
e 133 179
e 133 185
e 133 193
e 133 194
e 133 195
e 133 196
e 134 139
e 134 143
e 134 150
e 134 158
e 134 167
e 134 181
e 134 190
e 135 144
e 135 147
e 135 148
e 135 153
e 135 158
e 135 161
e 135 167
e 135 168
e 135 170
e 135 171
e 135 176
e 135 181
e 135 192
e 135 193
e 135 198
e 136 144
e 136 156
e 136 157
e 136 159
e 136 162
e 136 163
e 136 164
e 136 168
e 136 177
e 136 181
e 136 183
e 136 184
e 136 187
e 136 195
e 137 146
e 137 148
e 137 149
e 137 150
e 137 164
e 137 165
e 137 171
e 137 177
e 137 178
e 137 179
e 137 182
e 137 184
e 137 185
e 137 192
e 138 140
e 138 141
e 138 143
e 138 164
e 138 165
e 138 166
e 138 168
e 138 171
e 138 172
e 138 178
e 138 181
e 138 196
e 138 200
e 139 142
e 139 150
e 139 152
e 139 154
e 139 167
e 139 175
e 139 177
e 139 179
e 139 180
e 139 187
e 139 192
e 140 142
e 140 147
e 140 149
e 140 150
e 140 154
e 140 156
e 140 164
e 140 167
e 140 187
e 140 188
e 140 191
e 140 199
e 140 200
e 141 151
e 141 165
e 141 172
e 141 187
e 141 190
e 141 194
e 141 196
e 142 143
e 142 145
e 142 147
e 142 148
e 142 149
e 142 152
e 142 156
e 142 162
e 142 166
e 142 172
e 142 176
e 142 179
e 142 180
e 142 181
e 142 182
e 142 191
e 142 194
e 143 147
e 143 153
e 143 155
e 143 159
e 143 161
e 143 168
e 143 172
e 143 173
e 143 174
e 143 176
e 143 181
e 143 183
e 143 188
e 143 190
e 143 191
e 143 199
e 143 200
e 144 158
e 144 160
e 144 165
e 144 166
e 144 169
e 144 172
e 144 178
e 144 180
e 144 183
e 144 195
e 144 196
e 144 197
e 145 150
e 145 160
e 145 161
e 145 163
e 145 164
e 145 175
e 145 176
e 145 185
e 146 153
e 146 159
e 146 162
e 146 169
e 146 174
e 146 183
e 146 186
e 147 159
e 147 160
e 147 166
e 147 169
e 147 170
e 147 186
e 147 188
e 147 189
e 147 194
e 148 149
e 148 151
e 148 154
e 148 160
e 148 165
e 148 169
e 148 175
e 148 179
e 148 183
e 148 190
e 148 197
e 149 150
e 149 152
e 149 153
e 149 177
e 149 186
e 149 190
e 149 191
e 150 151
e 150 152
e 150 154
e 150 162
e 150 164
e 150 172
e 150 173
e 150 176
e 150 190
e 150 191
e 150 194
e 150 198
e 151 155
e 151 159
e 151 166
e 151 192
e 151 193
e 151 194
e 151 198
e 152 153
e 152 157
e 152 166
e 152 178
e 152 191
e 152 193
e 152 196
e 153 155
e 153 161
e 153 165
e 153 171
e 153 172
e 153 175
e 153 177
e 153 179
e 153 183
e 153 187
e 153 189
e 153 195
e 154 157
e 154 160
e 154 165
e 154 171
e 154 175
e 154 180
e 154 185
e 154 187
e 154 197
e 155 157
e 155 164
e 155 176
e 155 177
e 155 178
e 155 182
e 155 188
e 155 190
e 155 193
e 155 195
e 155 196
e 155 199
e 155 200
e 156 163
e 156 170
e 156 177
e 156 178
e 156 180
e 156 183
e 156 194
e 156 197
e 156 199
e 157 166
e 157 168
e 157 170
e 157 171
e 157 178
e 157 188
e 157 189
e 157 199
e 158 159
e 158 162
e 158 167
e 158 170
e 158 177
e 158 182
e 158 183
e 158 185
e 158 188
e 158 189
e 158 190
e 158 194
e 158 196
e 158 199
e 159 163
e 159 164
e 159 167
e 159 173
e 159 178
e 159 185
e 159 187
e 159 192
e 159 193
e 159 195
e 159 197
e 159 199
e 159 200
e 160 177
e 160 180
e 160 181
e 160 185
e 160 187
e 160 193
e 160 195
e 160 197
e 160 199
e 160 200
e 161 177
e 161 180
e 161 190
e 161 192
e 161 193
e 161 200
e 162 167
e 162 187
e 162 199
e 163 170
e 163 172
e 163 175
e 163 182
e 163 191
e 163 195
e 163 199
e 164 176
e 164 182
e 164 190
e 164 191
e 164 198
e 165 186
e 165 190
e 165 191
e 165 195
e 165 196
e 165 199
e 166 168
e 166 169
e 166 175
e 166 177
e 166 180
e 166 195
e 167 171
e 167 172
e 167 184
e 167 190
e 168 173
e 168 179
e 168 183
e 168 192
e 168 193
e 169 170
e 169 172
e 169 173
e 169 174
e 169 176
e 169 187
e 169 191
e 170 177
e 170 181
e 170 182
e 170 184
e 170 187
e 170 188
e 170 192
e 170 193
e 170 195
e 170 197
e 170 198
e 170 199
e 171 176
e 171 185
e 171 186
e 171 190
e 172 176
e 172 180
e 172 185
e 172 188
e 172 194
e 172 196
e 173 178
e 173 179
e 173 185
e 173 192
e 173 193
e 174 175
e 174 177
e 174 180
e 174 182
e 174 187
e 174 198
e 175 180
e 175 181
e 175 185
e 175 187
e 175 199
e 176 177
e 176 178
e 176 179
e 176 180
e 176 196
e 176 199
e 177 182
e 177 186
e 177 189
e 177 195
e 177 200
e 178 180
e 178 190
e 178 193
e 178 197
e 178 199
e 179 181
e 179 182
e 179 192
e 180 186
e 180 188
e 180 193
e 180 197
e 181 182
e 181 200
e 182 191
e 182 192
e 182 195
e 182 199
e 183 185
e 183 187
e 183 193
e 183 197
e 183 200
e 184 189
e 184 192
e 184 197
e 184 200
e 185 186
e 185 195
e 185 196
e 185 198
e 185 199
e 186 189
e 186 191
e 186 194
e 186 196
e 186 197
e 188 189
e 188 192
e 188 194
e 188 195
e 189 197
e 190 193
e 190 194
e 191 194
e 191 199
e 192 197
e 192 199
e 193 195
e 193 198
e 195 198
e 196 197
e 198 200
e 199 200
